c colouring generated by benchmark framework
p edge 500 3555
v 1 0
v 2 0
v 3 2
v 4 5
v 5 8
v 6 7
v 7 10
v 8 12
v 9 0
v 10 8
v 11 9
v 12 4
v 13 1
v 14 6
v 15 3
v 16 9
v 17 9
v 18 11
v 19 10
v 20 8
v 21 3
v 22 2
v 23 7
v 24 7
v 25 4
v 26 7
v 27 8
v 28 8
v 29 11
v 30 1
v 31 5
v 32 7
v 33 3
v 34 5
v 35 5
v 36 9
v 37 6
v 38 6
v 39 8
v 40 1
v 41 0
v 42 5
v 43 4
v 44 1
v 45 9
v 46 2
v 47 10
v 48 9
v 49 5
v 50 5
v 51 7
v 52 9
v 53 8
v 54 3
v 55 1
v 56 5
v 57 7
v 58 2
v 59 0
v 60 8
v 61 12
v 62 7
v 63 0
v 64 8
v 65 7
v 66 6
v 67 9
v 68 2
v 69 8
v 70 6
v 71 7
v 72 4
v 73 10
v 74 6
v 75 9
v 76 1
v 77 1
v 78 4
v 79 3
v 80 5
v 81 12
v 82 6
v 83 12
v 84 0
v 85 11
v 86 2
v 87 11
v 88 6
v 89 12
v 90 12
v 91 11
v 92 4
v 93 8
v 94 1
v 95 10
v 96 11
v 97 10
v 98 9
v 99 11
v 100 4
v 101 9
v 102 7
v 103 6
v 104 11
v 105 3
v 106 4
v 107 5
v 108 2
v 109 12
v 110 2
v 111 10
v 112 11
v 113 10
v 114 1
v 115 7
v 116 3
v 117 1
v 118 7
v 119 4
v 120 3
v 121 12
v 122 4
v 123 6
v 124 10
v 125 1
v 126 8
v 127 0
v 128 8
v 129 9
v 130 3
v 131 11
v 132 10
v 133 7
v 134 0
v 135 9
v 136 2
v 137 3
v 138 4
v 139 5
v 140 7
v 141 12
v 142 12
v 143 6
v 144 8
v 145 9
v 146 10
v 147 6
v 148 2
v 149 4
v 150 3
v 151 10
v 152 4
v 153 7
v 154 0
v 155 9
v 156 4
v 157 12
v 158 2
v 159 1
v 160 10
v 161 8
v 162 3
v 163 10
v 164 0
v 165 12
v 166 2
v 167 0
v 168 9
v 169 2
v 170 12
v 171 11
v 172 7
v 173 0
v 174 12
v 175 5
v 176 4
v 177 3
v 178 8
v 179 8
v 180 9
v 181 11
v 182 7
v 183 10
v 184 10
v 185 1
v 186 3
v 187 8
v 188 10
v 189 9
v 190 7
v 191 12
v 192 12
v 193 12
v 194 5
v 195 0
v 196 9
v 197 7
v 198 6
v 199 0
v 200 12
v 201 1
v 202 6
v 203 12
v 204 7
v 205 9
v 206 4
v 207 7
v 208 12
v 209 5
v 210 1
v 211 5
v 212 8
v 213 12
v 214 1
v 215 10
v 216 4
v 217 5
v 218 11
v 219 12
v 220 5
v 221 6
v 222 3
v 223 0
v 224 1
v 225 3
v 226 6
v 227 11
v 228 5
v 229 5
v 230 9
v 231 0
v 232 12
v 233 6
v 234 11
v 235 11
v 236 4
v 237 8
v 238 3
v 239 10
v 240 10
v 241 6
v 242 7
v 243 11
v 244 8
v 245 4
v 246 12
v 247 7
v 248 2
v 249 11
v 250 11
v 251 2
v 252 7
v 253 0
v 254 3
v 255 5
v 256 11
v 257 0
v 258 5
v 259 3
v 260 2
v 261 6
v 262 12
v 263 4
v 264 0
v 265 3
v 266 11
v 267 8
v 268 12
v 269 4
v 270 0
v 271 12
v 272 6
v 273 3
v 274 8
v 275 1
v 276 10
v 277 3
v 278 0
v 279 11
v 280 1
v 281 1
v 282 8
v 283 11
v 284 9
v 285 4
v 286 0
v 287 1
v 288 7
v 289 5
v 290 11
v 291 0
v 292 4
v 293 3
v 294 5
v 295 12
v 296 2
v 297 3
v 298 5
v 299 10
v 300 12
v 301 9
v 302 6
v 303 9
v 304 6
v 305 11
v 306 3
v 307 2
v 308 2
v 309 12
v 310 11
v 311 6
v 312 3
v 313 1
v 314 5
v 315 6
v 316 2
v 317 1
v 318 8
v 319 4
v 320 0
v 321 1
v 322 7
v 323 9
v 324 7
v 325 11
v 326 2
v 327 11
v 328 0
v 329 0
v 330 8
v 331 6
v 332 5
v 333 12
v 334 9
v 335 3
v 336 12
v 337 0
v 338 10
v 339 3
v 340 8
v 341 11
v 342 0
v 343 5
v 344 12
v 345 7
v 346 0
v 347 11
v 348 3
v 349 3
v 350 7
v 351 6
v 352 9
v 353 10
v 354 1
v 355 8
v 356 8
v 357 9
v 358 8
v 359 10
v 360 1
v 361 11
v 362 6
v 363 2
v 364 5
v 365 12
v 366 0
v 367 9
v 368 6
v 369 3
v 370 2
v 371 1
v 372 7
v 373 1
v 374 9
v 375 3
v 376 6
v 377 9
v 378 0
v 379 11
v 380 8
v 381 8
v 382 9
v 383 8
v 384 10
v 385 6
v 386 6
v 387 10
v 388 0
v 389 7
v 390 10
v 391 0
v 392 7
v 393 4
v 394 8
v 395 0
v 396 1
v 397 7
v 398 12
v 399 9
v 400 5
v 401 11
v 402 7
v 403 8
v 404 1
v 405 5
v 406 0
v 407 10
v 408 9
v 409 8
v 410 4
v 411 10
v 412 10
v 413 11
v 414 4
v 415 3
v 416 9
v 417 6
v 418 4
v 419 5
v 420 7
v 421 7
v 422 11
v 423 9
v 424 11
v 425 9
v 426 10
v 427 2
v 428 10
v 429 3
v 430 2
v 431 9
v 432 5
v 433 7
v 434 12
v 435 0
v 436 10
v 437 2
v 438 2
v 439 4
v 440 2
v 441 3
v 442 1
v 443 12
v 444 1
v 445 9
v 446 1
v 447 4
v 448 2
v 449 0
v 450 2
v 451 7
v 452 7
v 453 2
v 454 12
v 455 1
v 456 1
v 457 10
v 458 1
v 459 0
v 460 8
v 461 4
v 462 7
v 463 12
v 464 6
v 465 1
v 466 10
v 467 6
v 468 1
v 469 4
v 470 3
v 471 0
v 472 6
v 473 10
v 474 9
v 475 0
v 476 6
v 477 8
v 478 10
v 479 4
v 480 0
v 481 8
v 482 12
v 483 10
v 484 2
v 485 5
v 486 9
v 487 8
v 488 3
v 489 9
v 490 8
v 491 2
v 492 7
v 493 7
v 494 4
v 495 3
v 496 2
v 497 11
v 498 6
v 499 5
v 500 10
